10J3M/DAT/10J3MUTL-9.dat
10 3
30.6613 30.6613
23.4064 23.4064
43.1155 43.1155
11.8928 11.8928
5.5329 5.5329
14.6644 14.6644
13.3279 13.3279
24.9486 24.9486
29.621 29.621
40.5889 40.5889
59.4399