10J3M/SOL/10J3MUTL-9.sol
solution status: optimal solution found
objective value:                               64.011
x#1#3                                               1 	(obj:0)
x#2#3                               0.673368971136804 	(obj:0)
x#3#2                                               1 	(obj:0)
x#4#1                                               1 	(obj:0)
x#5#3                                               1 	(obj:0)
x#6#2                               0.852793253083498 	(obj:0)
x#7#1                                               1 	(obj:0)
x#9#1                               0.959271941563927 	(obj:0)
x#9#2                              0.0407280584360725 	(obj:0)
x#10#1                                              1 	(obj:0)
z                                              64.011 	(obj:1)
